%%% static parameters %%%
timespan = 1;
Fact = [3];
Distr1 = [10];
Distr2 = [20];
Clients_N = [40];
Demand_W = [15];
Lt0 = [4];
Lt1 = [4];
SS_ = [0.85];
DS_D = [7];
K = [200];
MA = [500];
%%% dynamic parameters %%%
lost_ratio_sales_ret_th = 0.27277757383536283;
lost_ratio_sales_ret_w = 6;
lost_ratio_sales_dis_th = 0.3992208769860349;
lost_ratio_sales_dis_w = 77;
lost_ratio_sales_fac_th = 0.7312254638500247;
lost_ratio_sales_fac_w = 70;
stock_customer_MA_mean_relative_th = 0.09525414759448514;
stock_customer_MA_mean_relative_w = 70;
stock_distributor_MA_mean_relative_th = 0.8600220266754762;
stock_distributor_MA_mean_relative_w = 1;
stock_retailer_MA_mean_relative_th = 0.5339252284076315;
stock_retailer_MA_mean_relative_w = 68;
stock_factory_MA_mean_relative_th = 0.6806322883080946;
stock_factory_MA_mean_relative_w = 83;
